5 5
6 4 1 6 5 10 2 2 3 13 5 3 4 1 12 2 4 5 4 4 12 3 1 3 3 17 5 12 5 4 19 1 14 5 13 2 9 3 5 3 1 15 4 17 2 11 4 1 6 3 10 4 5 2 15
4 5 2 13 4 7 5 5 3 17 1 17 1 1 7 3 3 18 4 16 2 12 3 3 18 5 6 4 8
6 2 5 10 2 4 2 2 12 1 6 2 3 2 1 19 4 5 19 4 10 2 2 3 19 5 3 19 4 8 5 8 1 12 2 18 2 3 12 4 4
4 2 2 6 1 19 2 3 18 1 10 2 1 10 4 16 2 5 10 4 10
6 2 1 12 3 3 4 2 7 3 4 4 7 1 6 5 1 15 5 20 4 13 2 17 3 20 4 5 12 2 12 4 11 3 13 2 2 10 3 14 4 2 9 5 3 3 3 4 16